
Gurobi 9.1.2 (win64) logging started Tue Dec  7 09:24:39 2021

Gurobi Optimizer version 9.1.2 build v9.1.2rc0 (win64)
Thread count: 8 physical cores, 8 logical processors, using up to 8 threads
Optimize a model with 1 rows, 137 columns and 136 nonzeros
Model fingerprint: 0xaf0d277b
Variable types: 1 continuous, 136 integer (136 binary)
Coefficient statistics:
  Matrix range     [1e+00, 1e+01]
  Objective range  [1e+00, 1e+00]
  Bounds range     [1e+02, 1e+02]
  RHS range        [1e+01, 1e+01]
Presolve time: 0.00s
Presolved: 1 rows, 137 columns, 136 nonzeros
Variable types: 1 continuous, 136 integer (136 binary)

Root simplex log...

Iteration    Objective       Primal Inf.    Dual Inf.      Time
       0   -1.2039424e+02   3.372907e-01   0.000000e+00     17s
       5   -1.0314462e+02   0.000000e+00   0.000000e+00     17s

Root relaxation: objective -1.031446e+02, 5 iterations, 0.00 seconds

    Nodes    |    Current Node    |     Objective Bounds      |     Work
 Expl Unexpl |  Obj  Depth IntInf | Incumbent    BestBd   Gap | It/Node Time

     0     0 -103.14462    0    1          - -103.14462      -     -   17s
H    0     0                       0.6599155 -103.14462      -     -   17s
H    0     0                       0.4962080 -103.14462      -     -   19s
     0     0  -55.63980    0    5    0.49621  -55.63980      -     -   19s
     0     0  -49.90885    0    6    0.49621  -49.90885      -     -   23s
     0     0  -48.36909    0    8    0.49621  -48.36909  9848%     -   23s
     0     0  -48.23322    0    9    0.49621  -48.23322  9820%     -   24s
     0     0  -48.09893    0    8    0.49621  -48.09893  9793%     -   24s
     0     0  -48.05765    0    8    0.49621  -48.05765  9785%     -   24s
     0     0  -47.63527    0    8    0.49621  -47.63527  9700%     -   24s
     0     0  -47.63527    0    8    0.49621  -47.63527  9700%     -   25s
     0     2  -47.63527    0    8    0.49621  -47.63527  9700%     -   25s
   259    74  -18.51816   12    7    0.49621  -25.10779  5160%   3.4   32s
*  294    80              13       0.4957057  -25.10779  5165%   3.3   33s
   667   201   -5.64565   20    4    0.49571  -13.71915  2868%   3.9   40s
  1171   206   -0.76413   24    2    0.49571   -8.48122  1811%   3.8   53s
  1483   222     cutoff   25         0.49571   -6.91630  1495%   3.8   60s
  2253   266   -0.16956   23    -    0.49571   -3.19200   744%   3.7   78s
  2817     0     cutoff   30         0.49571   -1.92816   489%   3.7   87s

Cutting planes:
  Cover: 2
  MIR: 6
  Lazy constraints: 299

Explored 3105 nodes (11136 simplex iterations) in 92.57 seconds
Thread count was 8 (of 8 available processors)

Solution count 3: 0.495706 0.496208 0.659915 

Optimal solution found (tolerance 1.00e-04)
Best objective 4.957057249083e-01, best bound 4.957057249083e-01, gap 0.0000%

User-callback calls 6673, time in user-callback 95.93 sec
